GLPSOL--GLPK LP/MIP Solver 5.0
Parameter(s) specified in the command line:
 --lp ../modeles/2_154.lp --log 2_154.log
Reading problem data from '../modeles/2_154.lp'...
317 rows, 620 columns, 2162 non-zeros
308 integer variables, all of which are binary
945 lines were read
GLPK Integer Optimizer 5.0
317 rows, 620 columns, 2162 non-zeros
308 integer variables, all of which are binary
Preprocessing...
308 constraint coefficient(s) were reduced
317 rows, 618 columns, 2160 non-zeros
308 integer variables, all of which are binary
Scaling...
 A: min|aij| =  6.747e-04  max|aij| =  4.000e+00  ratio =  5.929e+03
GM: min|aij| =  1.140e-01  max|aij| =  8.775e+00  ratio =  7.700e+01
EQ: min|aij| =  1.299e-02  max|aij| =  1.000e+00  ratio =  7.700e+01
2N: min|aij| =  1.079e-02  max|aij| =  1.762e+00  ratio =  1.633e+02
Constructing initial basis...
Size of triangular part is 317
Solving LP relaxation...
GLPK Simplex Optimizer 5.0
317 rows, 618 columns, 2160 non-zeros
      0: obj =   4.000000000e+00 inf =   9.500e+00 (5)
     41: obj =   4.303130009e-01 inf =   0.000e+00 (0)
*   138: obj =  -1.414049587e+00 inf =   1.911e-15 (0)
OPTIMAL LP SOLUTION FOUND
Integer optimization begins...
Long-step dual simplex will be used
+   138: mip =     not found yet >=              -inf        (1; 0)
+   140: >>>>>  -1.414049587e+00 >=  -1.414049587e+00   0.0% (3; 0)
+   140: mip =  -1.414049587e+00 >=     tree is empty   0.0% (0; 5)
INTEGER OPTIMAL SOLUTION FOUND
Time used:   0.0 secs
Memory used: 0.9 Mb (973666 bytes)
